(declare-const X String)
; twfofrfzlugq\x2feve\.qd\d+
(assert (str.in_re X (re.++ (str.to_re "twfofrfzlugq/eve.qd") (re.+ (re.range "0" "9")) (str.to_re "\u{a}"))))
; User.*User-Agent\x3A.*ResultATTENTION\x3Ariggiymd\x2fwdhi\.vhi
(assert (not (str.in_re X (re.++ (str.to_re "User") (re.* re.allchar) (str.to_re "User-Agent:") (re.* re.allchar) (str.to_re "ResultATTENTION:riggiymd/wdhi.vhi\u{a}")))))
; http\x3A\x2F\x2Ftv\x2Eseekmo\x2Ecom\x2Fshowme\x2Easpx\x3Fkeyword=
(assert (str.in_re X (str.to_re "http://tv.seekmo.com/showme.aspx?keyword=\u{a}")))
; /^\/\d{2,4}\.xap$/U
(assert (str.in_re X (re.++ (str.to_re "//") ((_ re.loop 2 4) (re.range "0" "9")) (str.to_re ".xap/U\u{a}"))))
(check-sat)

(exit)
